16 120
0 1 1
0 2 2
0 3 3
0 4 4
0 5 5
0 6 6
0 7 7
0 8 8
0 9 9
0 10 5
0 11 9
0 12 1
0 13 3
0 14 7
0 15 1
1 2 1
1 3 4
1 4 5
1 5 6
1 6 7
1 7 8
1 8 9
1 9 1
1 10 8
1 11 9
1 12 3
1 13 5
1 14 4
1 15 7
2 3 1
2 4 6
2 5 7
2 6 8
2 7 9
2 8 3
2 9 2
2 10 3
2 11 6
2 12 5
2 13 6
2 14 1
2 15 9
3 4 1
3 5 8
3 6 9
3 7 8
3 8 4
3 9 5
3 10 2
3 11 3
3 12 9
3 13 6
3 14 4
3 15 7
4 5 1
4 6 2
4 7 7
4 8 6
4 9 4
4 10 5
4 11 7
4 12 6
4 13 8
4 14 1
4 15 4
5 6 1
5 7 5
5 8 3
5 9 5
5 10 6
5 11 1
5 12 7
5 13 5
5 14 6
5 15 4
6 7 1
6 8 3
6 9 6
6 10 8
6 11 6
6 12 5
6 13 3
6 14 9
6 15 4
7 8 1
7 9 5
7 10 8
7 11 3
7 12 1
7 13 5
7 14 7
7 15 4
8 9 1
8 10 8
8 11 3
8 12 2
8 13 4
8 14 7
8 15 5
9 10 1
9 11 7
9 12 3
9 13 9
9 14 4
9 15 4
10 11 1
10 12 4
10 13 7
10 14 3
10 15 8
11 12 1
11 13 9
11 14 1
11 15 2
12 13 1
12 14 7
12 15 3
13 14 1
13 15 6
14 15 1